language Essence 1.3

letting costTC be
        function((1, 1) --> 6, (1, 2) --> 12, (1, 3) --> 10, (1, 4) --> 3, (1, 5) --> 8, (1, 6) --> 2, (1, 7) --> 3,
                 (2, 1) --> 9, (2, 2) --> 8, (2, 3) --> 9, (2, 4) --> 1, (2, 5) --> 3, (2, 6) --> 1, (2, 7) --> 7,
                 (3, 1) --> 11, (3, 2) --> 6, (3, 3) --> 3, (3, 4) --> 4, (3, 5) --> 12, (3, 6) --> 7, (3, 7) --> 9,
                 (4, 1) --> 6, (4, 2) --> 13, (4, 3) --> 10, (4, 4) --> 7, (4, 5) --> 11, (4, 6) --> 8, (4, 7) --> 11,
                 (5, 1) --> 4, (5, 2) --> 10, (5, 3) --> 8, (5, 4) --> 4, (5, 5) --> 12, (5, 6) --> 9, (5, 7) --> 3,
                 (6, 1) --> 5, (6, 2) --> 3, (6, 3) --> 6, (6, 4) --> 12, (6, 5) --> 6, (6, 6) --> 3, (6, 7) --> 8,
                 (7, 1) --> 11, (7, 2) --> 8, (7, 3) --> 5, (7, 4) --> 2, (7, 5) --> 10, (7, 6) --> 13, (7, 7) --> 12,
                 (8, 1) --> 10, (8, 2) --> 10, (8, 3) --> 12, (8, 4) --> 2, (8, 5) --> 13, (8, 6) --> 1, (8, 7) --> 5,
                 (9, 1) --> 5, (9, 2) --> 11, (9, 3) --> 10, (9, 4) --> 3, (9, 5) --> 8, (9, 6) --> 11, (9, 7) --> 2,
                 (10, 1) --> 2, (10, 2) --> 7, (10, 3) --> 5, (10, 4) --> 3, (10, 5) --> 12, (10, 6) --> 6,
                 (10, 7) --> 10, (11, 1) --> 13, (11, 2) --> 6, (11, 3) --> 1, (11, 4) --> 11, (11, 5) --> 8,
                 (11, 6) --> 10, (11, 7) --> 5, (12, 1) --> 5, (12, 2) --> 11, (12, 3) --> 8, (12, 4) --> 12,
                 (12, 5) --> 6, (12, 6) --> 11, (12, 7) --> 7, (13, 1) --> 6, (13, 2) --> 13, (13, 3) --> 8,
                 (13, 4) --> 2, (13, 5) --> 7, (13, 6) --> 1, (13, 7) --> 9, (14, 1) --> 13, (14, 2) --> 5,
                 (14, 3) --> 10, (14, 4) --> 6, (14, 5) --> 4, (14, 6) --> 6, (14, 7) --> 8, (15, 1) --> 13,
                 (15, 2) --> 9, (15, 3) --> 6, (15, 4) --> 7, (15, 5) --> 6, (15, 6) --> 4, (15, 7) --> 11,
                 (16, 1) --> 10, (16, 2) --> 8, (16, 3) --> 5, (16, 4) --> 10, (16, 5) --> 3, (16, 6) --> 11,
                 (16, 7) --> 4, (17, 1) --> 10, (17, 2) --> 11, (17, 3) --> 12, (17, 4) --> 12, (17, 5) --> 13,
                 (17, 6) --> 3, (17, 7) --> 11, (18, 1) --> 5, (18, 2) --> 11, (18, 3) --> 5, (18, 4) --> 9,
                 (18, 5) --> 12, (18, 6) --> 8, (18, 7) --> 12, (19, 1) --> 4, (19, 2) --> 6, (19, 3) --> 9,
                 (19, 4) --> 6, (19, 5) --> 3, (19, 6) --> 5, (19, 7) --> 8, (20, 1) --> 10, (20, 2) --> 6,
                 (20, 3) --> 3, (20, 4) --> 13, (20, 5) --> 5, (20, 6) --> 12, (20, 7) --> 4, (21, 1) --> 1,
                 (21, 2) --> 7, (21, 3) --> 1, (21, 4) --> 12, (21, 5) --> 1, (21, 6) --> 2, (21, 7) --> 7,
                 (22, 1) --> 12, (22, 2) --> 4, (22, 3) --> 6, (22, 4) --> 12, (22, 5) --> 2, (22, 6) --> 7,
                 (22, 7) --> 6, (23, 1) --> 2, (23, 2) --> 6, (23, 3) --> 10, (23, 4) --> 13, (23, 5) --> 11,
                 (23, 6) --> 1, (23, 7) --> 6, (24, 1) --> 13, (24, 2) --> 11, (24, 3) --> 1, (24, 4) --> 7,
                 (24, 5) --> 7, (24, 6) --> 12, (24, 7) --> 7, (25, 1) --> 11, (25, 2) --> 3, (25, 3) --> 8,
                 (25, 4) --> 8, (25, 5) --> 4, (25, 6) --> 6, (25, 7) --> 13, (26, 1) --> 5, (26, 2) --> 2,
                 (26, 3) --> 11, (26, 4) --> 3, (26, 5) --> 3, (26, 6) --> 4, (26, 7) --> 5, (27, 1) --> 10,
                 (27, 2) --> 3, (27, 3) --> 13, (27, 4) --> 4, (27, 5) --> 13, (27, 6) --> 11, (27, 7) --> 12,
                 (28, 1) --> 8, (28, 2) --> 7, (28, 3) --> 13, (28, 4) --> 3, (28, 5) --> 6, (28, 6) --> 6,
                 (28, 7) --> 2, (29, 1) --> 2, (29, 2) --> 10, (29, 3) --> 11, (29, 4) --> 6, (29, 5) --> 10,
                 (29, 6) --> 6, (29, 7) --> 1, (30, 1) --> 2, (30, 2) --> 6, (30, 3) --> 1, (30, 4) --> 13,
                 (30, 5) --> 2, (30, 6) --> 7, (30, 7) --> 9, (31, 1) --> 11, (31, 2) --> 10, (31, 3) --> 4,
                 (31, 4) --> 5, (31, 5) --> 1, (31, 6) --> 4, (31, 7) --> 7, (32, 1) --> 5, (32, 2) --> 10,
                 (32, 3) --> 2, (32, 4) --> 12, (32, 5) --> 5, (32, 6) --> 6, (32, 7) --> 2, (33, 1) --> 3,
                 (33, 2) --> 1, (33, 3) --> 7, (33, 4) --> 8, (33, 5) --> 3, (33, 6) --> 3, (33, 7) --> 6,
                 (34, 1) --> 10, (34, 2) --> 9, (34, 3) --> 8, (34, 4) --> 4, (34, 5) --> 2, (34, 6) --> 10,
                 (34, 7) --> 3, (35, 1) --> 4, (35, 2) --> 9, (35, 3) --> 9, (35, 4) --> 3, (35, 5) --> 9,
                 (35, 6) --> 12, (35, 7) --> 10, (36, 1) --> 5, (36, 2) --> 8, (36, 3) --> 2, (36, 4) --> 6,
                 (36, 5) --> 7, (36, 6) --> 5, (36, 7) --> 3, (37, 1) --> 8, (37, 2) --> 12, (37, 3) --> 3,
                 (37, 4) --> 10, (37, 5) --> 9, (37, 6) --> 5, (37, 7) --> 4, (38, 1) --> 9, (38, 2) --> 11,
                 (38, 3) --> 3, (38, 4) --> 3, (38, 5) --> 4, (38, 6) --> 6, (38, 7) --> 13, (39, 1) --> 12,
                 (39, 2) --> 2, (39, 3) --> 7, (39, 4) --> 12, (39, 5) --> 4, (39, 6) --> 4, (39, 7) --> 2,
                 (40, 1) --> 13, (40, 2) --> 1, (40, 3) --> 5, (40, 4) --> 10, (40, 5) --> 4, (40, 6) --> 11,
                 (40, 7) --> 3, (41, 1) --> 4, (41, 2) --> 11, (41, 3) --> 1, (41, 4) --> 7, (41, 5) --> 1,
                 (41, 6) --> 11, (41, 7) --> 6)
letting costWT be
        function((1, 1) --> 2, (1, 2) --> 5, (1, 3) --> 3, (1, 4) --> 6, (1, 5) --> 4, (1, 6) --> 4, (1, 7) --> 6,
                 (1, 8) --> 6, (1, 9) --> 5, (1, 10) --> 4, (1, 11) --> 6, (1, 12) --> 4, (1, 13) --> 6, (1, 14) --> 4,
                 (1, 15) --> 6, (1, 16) --> 6, (1, 17) --> 1, (1, 18) --> 2, (1, 19) --> 1, (1, 20) --> 4,
                 (1, 21) --> 2, (1, 22) --> 3, (1, 23) --> 3, (1, 24) --> 2, (1, 25) --> 6, (1, 26) --> 3,
                 (1, 27) --> 2, (1, 28) --> 3, (1, 29) --> 4, (1, 30) --> 6, (1, 31) --> 3, (1, 32) --> 1,
                 (1, 33) --> 6, (1, 34) --> 5, (1, 35) --> 5, (1, 36) --> 5, (1, 37) --> 2, (1, 38) --> 4,
                 (1, 39) --> 4, (1, 40) --> 3, (1, 41) --> 1, (2, 1) --> 6, (2, 2) --> 1, (2, 3) --> 4, (2, 4) --> 4,
                 (2, 5) --> 1, (2, 6) --> 1, (2, 7) --> 4, (2, 8) --> 3, (2, 9) --> 3, (2, 10) --> 3, (2, 11) --> 5,
                 (2, 12) --> 6, (2, 13) --> 3, (2, 14) --> 1, (2, 15) --> 1, (2, 16) --> 2, (2, 17) --> 5,
                 (2, 18) --> 2, (2, 19) --> 1, (2, 20) --> 5, (2, 21) --> 5, (2, 22) --> 3, (2, 23) --> 2,
                 (2, 24) --> 3, (2, 25) --> 2, (2, 26) --> 5, (2, 27) --> 5, (2, 28) --> 6, (2, 29) --> 3,
                 (2, 30) --> 1, (2, 31) --> 5, (2, 32) --> 3, (2, 33) --> 6, (2, 34) --> 1, (2, 35) --> 1,
                 (2, 36) --> 4, (2, 37) --> 1, (2, 38) --> 2, (2, 39) --> 2, (2, 40) --> 5, (2, 41) --> 6, (3, 1) --> 1,
                 (3, 2) --> 5, (3, 3) --> 1, (3, 4) --> 3, (3, 5) --> 3, (3, 6) --> 4, (3, 7) --> 5, (3, 8) --> 6,
                 (3, 9) --> 2, (3, 10) --> 3, (3, 11) --> 1, (3, 12) --> 2, (3, 13) --> 6, (3, 14) --> 4, (3, 15) --> 2,
                 (3, 16) --> 6, (3, 17) --> 6, (3, 18) --> 4, (3, 19) --> 5, (3, 20) --> 3, (3, 21) --> 5,
                 (3, 22) --> 4, (3, 23) --> 3, (3, 24) --> 2, (3, 25) --> 3, (3, 26) --> 1, (3, 27) --> 1,
                 (3, 28) --> 3, (3, 29) --> 5, (3, 30) --> 4, (3, 31) --> 5, (3, 32) --> 3, (3, 33) --> 5,
                 (3, 34) --> 6, (3, 35) --> 4, (3, 36) --> 4, (3, 37) --> 2, (3, 38) --> 5, (3, 39) --> 2,
                 (3, 40) --> 1, (3, 41) --> 4, (4, 1) --> 2, (4, 2) --> 2, (4, 3) --> 3, (4, 4) --> 3, (4, 5) --> 1,
                 (4, 6) --> 4, (4, 7) --> 4, (4, 8) --> 4, (4, 9) --> 2, (4, 10) --> 2, (4, 11) --> 3, (4, 12) --> 6,
                 (4, 13) --> 3, (4, 14) --> 2, (4, 15) --> 3, (4, 16) --> 5, (4, 17) --> 6, (4, 18) --> 3,
                 (4, 19) --> 2, (4, 20) --> 1, (4, 21) --> 4, (4, 22) --> 5, (4, 23) --> 2, (4, 24) --> 1,
                 (4, 25) --> 1, (4, 26) --> 6, (4, 27) --> 1, (4, 28) --> 4, (4, 29) --> 6, (4, 30) --> 6,
                 (4, 31) --> 1, (4, 32) --> 1, (4, 33) --> 5, (4, 34) --> 3, (4, 35) --> 4, (4, 36) --> 5,
                 (4, 37) --> 3, (4, 38) --> 5, (4, 39) --> 1, (4, 40) --> 6, (4, 41) --> 4, (5, 1) --> 6, (5, 2) --> 1,
                 (5, 3) --> 1, (5, 4) --> 1, (5, 5) --> 6, (5, 6) --> 2, (5, 7) --> 2, (5, 8) --> 5, (5, 9) --> 3,
                 (5, 10) --> 1, (5, 11) --> 1, (5, 12) --> 2, (5, 13) --> 2, (5, 14) --> 3, (5, 15) --> 1,
                 (5, 16) --> 4, (5, 17) --> 3, (5, 18) --> 3, (5, 19) --> 2, (5, 20) --> 4, (5, 21) --> 1,
                 (5, 22) --> 1, (5, 23) --> 5, (5, 24) --> 1, (5, 25) --> 3, (5, 26) --> 2, (5, 27) --> 1,
                 (5, 28) --> 6, (5, 29) --> 2, (5, 30) --> 6, (5, 31) --> 2, (5, 32) --> 2, (5, 33) --> 3,
                 (5, 34) --> 6, (5, 35) --> 4, (5, 36) --> 5, (5, 37) --> 3, (5, 38) --> 2, (5, 39) --> 4,
                 (5, 40) --> 4, (5, 41) --> 2)
letting demand be function(1 --> 21, 2 --> 21, 3 --> 21, 4 --> 21, 5 --> 21, 6 --> 21, 7 --> 21)
letting maxCost be 21
letting n_customer be 7
letting n_transshipment be 41
letting n_warehouses be 5
letting stock be function(1 --> 29, 2 --> 34, 3 --> 37, 4 --> 33, 5 --> 36)
